NAME          
ROWS
 N  OBJ
 L  c1
 L  c2
 L  c3
COLUMNS
    MARKER    'MARKER'                 'INTORG'
    x[1]      c1        2
    x[1]      c2        440
    x[1]      c3        877
    x[1]      OBJ       -628
    x[2]      c1        381
    x[2]      c2        447
    x[2]      c3        858
    x[2]      OBJ       -27
    x[3]      c1        962
    x[3]      c2        946
    x[3]      c3        837
    x[3]      OBJ       -69
    x[4]      c1        540
    x[4]      c2        714
    x[4]      c3        349
    x[4]      OBJ       -407
    x[5]      c1        676
    x[5]      c2        891
    x[5]      c3        770
    x[5]      OBJ       -796
    x[6]      c1        848
    x[6]      c2        953
    x[6]      c3        233
    x[6]      OBJ       -734
    x[7]      c1        786
    x[7]      c2        188
    x[7]      c3        65
    x[7]      OBJ       -253
    x[8]      c1        403
    x[8]      c2        205
    x[8]      c3        661
    x[8]      OBJ       -520
    x[9]      c1        851
    x[9]      c2        218
    x[9]      c3        755
    x[9]      OBJ       -53
    x[10]     c1        532
    x[10]     c2        764
    x[10]     c3        307
    x[10]     OBJ       -640
    x[11]     c1        770
    x[11]     c2        44
    x[11]     c3        579
    x[11]     OBJ       -684
    x[12]     c1        304
    x[12]     c2        423
    x[12]     c3        54
    x[12]     OBJ       -408
    x[13]     c1        147
    x[13]     c2        583
    x[13]     c3        483
    x[13]     OBJ       -566
    x[14]     c1        721
    x[14]     c2        999
    x[14]     c3        827
    x[14]     OBJ       -385
    x[15]     c1        403
    x[15]     c2        407
    x[15]     c3        698
    x[15]     OBJ       -559
RHS
    rhs       c1        4163
    rhs       c2        4111
    rhs       c3        4176
RANGES
BOUNDS
 BV bounds    x[1]
 BV bounds    x[2]
 BV bounds    x[3]
 BV bounds    x[4]
 BV bounds    x[5]
 BV bounds    x[6]
 BV bounds    x[7]
 BV bounds    x[8]
 BV bounds    x[9]
 BV bounds    x[10]
 BV bounds    x[11]
 BV bounds    x[12]
 BV bounds    x[13]
 BV bounds    x[14]
 BV bounds    x[15]
ENDATA
